1641798000
1641828600
1641886200
1641916800
1641972600
1642002300
1642059000
1642089600
1642143600
1642174200
1641288600
1641299400
1641469500
1641471300
1642404600
1642435200
1642491900
1642524300
1642577400
1642608360
1642663800
1642694400
1642750200
1642780800
1643009400
1643040000
1643095800
1643126400
1643182200
1643193000
1643200200
1643212800
1643268120
1643299260
1643355000
1643383800
1643614140
1643644800
1643644800
1643651100
